BaCoS2
1.0
        4.5746598244         0.0000000000         0.0000000000
        0.0000000000         8.9423599243         0.0000000000
       -4.5375628124         0.0000000000         4.5727188388
   Ba   Co    S
    2    2    4
Direct
    -0.000000015         0.803290033         0.749999964 # Ba
    -0.000000014         0.196709993         0.249999988 # Ba
    -0.000000015         0.405800004         0.749999964 # Co up
    -0.000000014         0.594200023         0.249999988 # Co dn
    -0.000000015         0.150220002         0.749999964 # S
    -0.000000014         0.849779945         0.249999988 # S
     0.499999985         0.491699997         0.749999964 # S
     0.499999986         0.508300003         0.249999988 # S
